peakDumbCharging = 22200; 
Machine = anon_enum(16); 
machineSpeed = [3700,3700,3700,3700,3700,3700,3700,3700,3700,3700,3700,3700,3700,3700,3700,3700]; 
machineLoad = [3700,3700,3700,3700,3700,3700,3700,3700,3700,3700,3700,3700,3700,3700,3700,3700]; 
Car = anon_enum(23); 
demandCar = [23160,2160,8000,5160,10640,120,120,10800,3400,11080,7840,13480,3600,7960,9280,28320,15080,8960,8080,19280,120,32400,1760]; 
arrivalCar = [71,69,66,66,66,62,62,62,62,60,58,58,57,55,52,46,42,41,37,35,35,31,29]; 
departureCar = [79,71,72,69,70,63,63,66,64,68,63,62,59,58,56,56,47,44,43,44,36,49,31]; 
